%SETS
JOBS     = 1..5;
MACHINES = 1..5;
SPEED    = 5;

time        = array3d(JOBS,MACHINES,1..SPEED,[24, 8, 5, 4, 4, 37, 12, 9, 7, 6, 18, 6, 4, 3, 3, 9, 3, 2, 1, 1, 5, 1, 1, 1, 1, 2, 1, 1, 1, 1, 34, 11, 8, 7, 6, 15, 5, 3, 3, 2, 4, 1, 1, 1, 1, 54, 18, 13, 11, 9, 8, 2, 2, 1, 1, 13, 4, 3, 2, 2, 9, 3, 2, 1, 1, 25, 8, 6, 5, 4, 22, 7, 5, 4, 4, 23, 8, 5, 4, 4, 7, 2, 1, 1, 1, 8, 2, 2, 1, 1, 7, 2, 1, 1, 1, 10, 3, 2, 2, 1, 4, 1, 1, 1, 1, 4, 1, 1, 1, 1, 85, 29, 21, 17, 15, 83, 28, 20, 16, 15, 5, 1, 1, 1, 1]);
energy      = array3d(JOBS,MACHINES,1..SPEED,[78, 92, 95, 96, 96, 69, 88, 91, 93, 94, 83, 94, 96, 97, 97, 91, 97, 98, 99, 99, 95, 99, 99, 99, 99, 98, 99, 99, 99, 99, 71, 89, 92, 93, 94, 86, 95, 97, 97, 98, 96, 99, 99, 99, 99, 58, 83, 87, 89, 91, 92, 98, 98, 99, 99, 87, 96, 97, 98, 98, 91, 97, 98, 99, 99, 77, 92, 94, 95, 96, 80, 93, 95, 96, 96, 79, 92, 95, 96, 96, 93, 98, 99, 99, 99, 92, 98, 98, 99, 99, 93, 98, 99, 99, 99, 90, 97, 98, 98, 99, 96, 99, 99, 99, 99, 96, 99, 99, 99, 99, 42, 74, 81, 84, 86, 43, 75, 81, 85, 86, 95, 99, 99, 99, 99]);
precedence  = array2d(JOBS,MACHINES,[3, 2, 0, 1, 4, 0, 3, 1, 4, 2, 4, 3, 2, 1, 0, 3, 1, 4, 0, 2, 2, 4, 3, 0, 1]);
releaseDate = [80, 20, 20, 10, 0];
dueDate     = [114, 54, 42, 19, 49];